1102
1102
1076
1076
1102
1102
1083
1042
1055
1055
1055
1055
1055
1055
1055
1055
1085
1069
1013
1013
1053
994
1032
967
967
1065
1036
983
983
952
1011
1045
1042
913
913
913
906
906
906
906
906
906
906
1014
1014
1014
1014
989
1024
1031
1028
1028
973
973
984
984
984
984
1014
1014
960
982
982
982
990
1014
1021
1021
1021
1048
1034
1034
1020
1020
993
993
1020
1020
1020
1001
1001
990
1001
1002
1009
955
1009
1029
1029
1029
1040
1058
1057
1057
1022
970
1067
1067
1032
993
